LAMMPS (7 Feb 2024 - Update 1)
OMP_NUM_THREADS environment is not set. Defaulting to 1 thread. (src/comm.cpp:98)
  using 1 OpenMP thread(s) per MPI task
# LAMMPS input script for Ethylene

# 1. Initialization
units           real
atom_style      full
boundary        p p p

# 2. Data Reading
read_data       data.ethylene
Reading data file ...
  orthogonal box = (-10 -10 -10) to (10 10 10)
  1 by 1 by 1 MPI processor grid
WARNING: Atom style in data file id molecule type charge x y z differs from currently defined atom style full (src/read_data.cpp:621)
  reading atoms ...
  6 atoms
  scanning bonds ...
  3 = max bonds/atom
  scanning angles ...
  3 = max angles/atom
  reading bonds ...
  5 bonds
  reading angles ...
  6 angles
Finding 1-2 1-3 1-4 neighbors ...
  special bond factors lj:    0        0        0       
  special bond factors coul:  0        0        0       
     3 = max # of 1-2 neighbors
     2 = max # of 1-3 neighbors
     4 = max # of 1-4 neighbors
     5 = max # of special neighbors
  special bonds CPU = 0.000 seconds
  read_data CPU = 0.005 seconds

# 3. Force Field Settings (Simplified for demonstration)
# Bond styles: 1=Single, 2=Double
bond_style      harmonic
angle_style     harmonic
dihedral_style  none
improper_style  none
pair_style      lj/cut 10.0

# Coefficients
# pair_coeff    type1 type2 eps sigma
pair_coeff      * * 0.1 3.0  # Generic LJ for everything

# Bond Coeffs: type K r0
# User Params: C-C/Single=100, C=C=147.
# Targets: C-H=1.087 A, C=C=1.339 A
bond_coeff      1 100.0 1.087  # Type 1: Single Bond (C-H)
bond_coeff      2 147.0 1.339  # Type 2: Double Bond (C=C)
bond_coeff      3 800.0 1.20   # Type 3: Triple (unused)

# Angle Coeffs: type K theta0
# User Params: Angle Strength = 60.
# Targets: H-C-H = 117.5, H-C=C = 121.3
# Since we only defined ONE angle type in the converter, we have to pick one equilibrium angle.
# This is a limitation of our simple converter.
# We will use an average or the H-C=C value (121.3) as it is more common (4 vs 2).
angle_coeff     1 60.0 120.0   # Generic angle ~120 degrees

# Note: This is an approximation. In a real simulation, we'd distinguish C-H from C-C single bonds.
# But for "Hello World" to show it runs, this is sufficient.

# 4. Settings
neighbor        2.0 bin
neigh_modify    delay 0 every 1 check yes

# 5. Minimization
thermo          10
thermo_style    custom step temp pe ke etotal press vol
dump            1 all atom 10 dump.ethylene

minimize        1.0e-4 1.0e-6 100 1000
Generated 0 of 15 mixed pair_coeff terms from geometric mixing rule
Neighbor list info ...
  update: every = 1 steps, delay = 0 steps, check = yes
  max neighbors/atom: 2000, page size: 100000
  master list distance cutoff = 12
  ghost atom cutoff = 12
  binsize = 6, bins = 4 4 4
  1 neighbor lists, perpetual/occasional/extra = 1 0 0
  (1) pair lj/cut, perpetual
      attributes: half, newton on
      pair build: half/bin/newton
      stencil: half/bin/3d
      bin: standard
Per MPI rank memory allocation (min/avg/max) = 8.502 | 8.502 | 8.502 Mbytes
   Step          Temp          PotEng         KinEng         TotEng         Press          Volume    
         0   0              2.9979845      0              2.9979845      12.063061      8000         
        10   0              0.00060212944  0              0.00060212944  3.4718201      8000         
        20   0              2.5641175e-07  0              2.5641175e-07  0.06503552     8000         
        29   0              6.9043868e-12  0              6.9043868e-12 -1.2079541e-05  8000         
Loop time of 0.000119416 on 1 procs for 29 steps with 6 atoms

31.8% CPU use with 1 MPI tasks x 1 OpenMP threads

Minimization stats:
  Stopping criterion = linesearch alpha is zero
  Energy initial, next-to-last, final = 
      2.99798445620815 6.90438675228361e-12 6.90438675228361e-12
  Force two-norm initial, final = 64.657404 8.1607585e-05
  Force max component initial, final = 34.192167 3.6526419e-05
  Final line search alpha, max atom move = 0.5 1.826321e-05
  Iterations, force evaluations = 29 104

MPI task timing breakdown:
Section |  min time  |  avg time  |  max time  |%varavg| %total
---------------------------------------------------------------
Pair    | 6.016e-06  | 6.016e-06  | 6.016e-06  |   0.0 |  5.04
Bond    | 2.917e-05  | 2.917e-05  | 2.917e-05  |   0.0 | 24.43
Neigh   | 0          | 0          | 0          |   0.0 |  0.00
Comm    | 3.4112e-05 | 3.4112e-05 | 3.4112e-05 |   0.0 | 28.57
Output  | 2.0782e-05 | 2.0782e-05 | 2.0782e-05 |   0.0 | 17.40
Modify  | 0          | 0          | 0          |   0.0 |  0.00
Other   |            | 2.934e-05  |            |       | 24.57

Nlocal:              6 ave           6 max           6 min
Histogram: 1 0 0 0 0 0 0 0 0 0
Nghost:            156 ave         156 max         156 min
Histogram: 1 0 0 0 0 0 0 0 0 0
Neighs:              0 ave           0 max           0 min
Histogram: 1 0 0 0 0 0 0 0 0 0

Total # of neighbors = 0
Ave neighs/atom = 0
Ave special neighs/atom = 5
Neighbor list builds = 0
Dangerous builds = 0

# 6. Dynamics (Making it move!)
undump          1
reset_timestep 0
velocity        all create 300.0 12345 dist gaussian
fix             1 all nve
run             1000
Generated 0 of 15 mixed pair_coeff terms from geometric mixing rule
Per MPI rank memory allocation (min/avg/max) = 7.377 | 7.377 | 7.377 Mbytes
   Step          Temp          PotEng         KinEng         TotEng         Press          Volume    
         0   300            6.9043868e-12  4.4712151      4.4712151      25.548665      8000         
        10   221.39188      1.1906795      3.2996357      4.4903152      38.478621      8000         
        20   191.18046      1.6586427      2.8493632      4.5080059      65.538485      8000         
        30   197.65619      1.557907       2.9458778      4.5037848     -89.240736      8000         
        40   216.86336      1.2601979      3.2321424      4.4923402      19.502412      8000         
        50   219.90641      1.2139122      3.2774961      4.4914083     -49.287856      8000         
        60   213.54068      1.3143417      3.182621       4.4969627      125.39371      8000         
        70   177.40923      1.8658242      2.6441161      4.5099403     -66.389482      8000         
        80   143.21763      2.3844453      2.1345228      4.518968       21.417322      8000         
        90   191.65257      1.6464185      2.8563995      4.5028181     -90.502764      8000         
       100   258.41566      0.62682258     3.8514399      4.4782625      94.574042      8000         
       110   229.89995      1.063125       3.4264405      4.4895655     -19.043303      8000         
       120   168.99312      1.9881688      2.518682       4.5068508      44.258233      8000         
       130   139.00885      2.4454836      2.0717949      4.5172785     -77.671383      8000         
       140   205.69232      1.4351037      3.0656487      4.5007524      29.216383      8000         
       150   274.58999      0.38317022     4.092503       4.4756732      10.128988      8000         
       160   265.8782       0.51314199     3.9626621      4.4758041      26.09282       8000         
       170   180.4868       1.8134686      2.6899843      4.503453      -7.8244199      8000         
       180   163.52268      2.0772168      2.4371503      4.5143671     -44.178147      8000         
       190   193.58498      1.6196891      2.8852003      4.5048894      50.712969      8000         
       200   233.24815      1.0130633      3.4763422      4.4894054     -27.25125       8000         
       210   215.65603      1.2766007      3.2141483      4.490749       57.01589       8000         
       220   163.14314      2.0777863      2.4314935      4.5092799     -75.092559      8000         
       230   158.92355      2.155054       2.3686045      4.5236586      50.83429       8000         
       240   185.69878      1.7443672      2.7676639      4.5120311     -59.969154      8000         
       250   232.65146      1.0237648      3.4674491      4.4912139      80.985736      8000         
       260   183.20887      1.7666778      2.7305542      4.497232      -75.890301      8000         
       270   195.32591      1.5896023      2.9111472      4.5007495      66.872474      8000         
       280   210.85031      1.3654278      3.1425236      4.5079514     -57.614671      8000         
       290   206.58451      1.4294961      3.078946       4.5084421      49.811809      8000         
       300   204.83693      1.4463316      3.0528999      4.4992315     -50.847644      8000         
       310   231.68125      1.0328748      3.452989       4.4858638      34.897199      8000         
       320   213.43595      1.3148147      3.1810601      4.4958747      2.5269245      8000         
       330   190.04012      1.6754071      2.8323675      4.5077746      20.480362      8000         
       340   222.11032      1.1935671      3.3103433      4.5039104     -6.5338156      8000         
       350   235.56653      0.98573099     3.5108954      4.4966264     -35.239161      8000         
       360   195.4696       1.5822785      2.9132887      4.4955672      22.349899      8000         
       370   181.09458      1.7996401      2.6990428      4.4986829     -3.9383629      8000         
       380   236.50871      0.96952177     3.5249378      4.4944595      74.138072      8000         
       390   224.78832      1.1488751      3.3502565      4.4991316     -72.479574      8000         
       400   192.46301      1.6337678      2.8684784      4.5022463      26.342204      8000         
       410   169.78625      1.9733448      2.5305027      4.5038475     -75.016294      8000         
       420   199.33227      1.5232845      2.9708582      4.4941427      111.07281      8000         
       430   218.02866      1.2466626      3.2495102      4.4961728     -40.399441      8000         
       440   195.86647      1.5856216      2.9192037      4.5048253      48.594567      8000         
       450   166.73765      2.0236358      2.4850663      4.5087022     -105.64696      8000         
       460   178.76015      1.8383921      2.6642502      4.5026423      52.582052      8000         
       470   190.20296      1.6647806      2.8347944      4.499575       1.3951438      8000         
       480   231.7958       1.040196       3.4546962      4.4948922      56.953392      8000         
       490   185.18068      1.7485577      2.7599421      4.5084998     -50.810919      8000         
       500   153.44975      2.2289989      2.2870228      4.5160216     -45.333646      8000         
       510   154.17265      2.2131317      2.297797       4.5109287      16.618419      8000         
       520   175.65349      1.8863061      2.6179485      4.5042546      25.35205       8000         
       530   209.65718      1.3784448      3.1247411      4.5031859      53.119945      8000         
       540   148.29386      2.3055398      2.2101792      4.515719      -87.830586      8000         
       550   151.28325      2.2642188      2.2547331      4.5189519     -3.0878211      8000         
       560   190.70129      1.6647877      2.8422216      4.5070093     -37.785413      8000         
       570   181.02471      1.8075896      2.6980013      4.5055909      111.87292      8000         
       580   151.41921      2.2586738      2.2567595      4.5154333     -52.890364      8000         
       590   154.77507      2.2100875      2.3067754      4.5168629      17.148494      8000         
       600   193.83401      1.6211347      2.8889119      4.5100465     -112.31269      8000         
       610   186.71519      1.7235404      2.7828125      4.5063529      82.80026       8000         
       620   160.77154      2.1092685      2.396147       4.5054156     -11.336934      8000         
       630   237.71031      0.95179881     3.5428465      4.4946453      70.733358      8000         
       640   206.27663      1.4247381      3.0743572      4.4990953     -80.056573      8000         
       650   206.63577      1.4211342      3.0797099      4.5008441     -13.908368      8000         
       660   236.92444      0.96145309     3.5311337      4.4925868      12.067487      8000         
       670   185.19643      1.7398541      2.7601769      4.500031       58.290727      8000         
       680   202.87815      1.4769831      3.0237062      4.5006893      23.425876      8000         
       690   214.02621      1.3076906      3.1898574      4.497548      -59.170573      8000         
       700   231.92871      1.0371577      3.4566771      4.4938348     -11.486861      8000         
       710   188.72892      1.6913483      2.8128253      4.5041736     -20.248363      8000         
       720   153.21125      2.2231273      2.2834682      4.5065956      108.29749      8000         
       730   218.09278      1.2481057      3.2504658      4.4985715     -46.951182      8000         
       740   229.43838      1.0708234      3.4195611      4.4903845      26.346529      8000         
       750   209.6625       1.3711974      3.1248205      4.4960178     -116.28196      8000         
       760   166.30668      2.0317237      2.478643       4.5103667      95.671804      8000         
       770   142.37273      2.3893327      2.1219304      4.5112631     -10.562486      8000         
       780   214.75602      1.3000867      3.2007345      4.5008212      73.737279      8000         
       790   214.61647      1.2968014      3.1986546      4.495456      -106.45028      8000         
       800   209.942        1.3699898      3.1289862      4.498976      -2.0000608      8000         
       810   148.45481      2.3035705      2.2125779      4.5161484     -2.5261049      8000         
       820   132.97355      2.5353094      1.9818445      4.5171539      81.077873      8000         
       830   204.58133      1.4559832      3.0490904      4.5050736     -9.4878482      8000         
       840   193.33813      1.6182141      2.8815212      4.4997353     -64.37888       8000         
       850   183.00447      1.7809417      2.7275078      4.5084494     -25.724412      8000         
       860   149.00128      2.297984       2.2207225      4.5187065      11.039441      8000         
       870   127.64043      2.6197682      1.9023594      4.5221276      89.148427      8000         
       880   177.3398       1.8691813      2.6430812      4.5122626     -54.875482      8000         
       890   169.49546      1.9836314      2.5261689      4.5098004     -14.994256      8000         
       900   173.41757      1.9245965      2.5846241      4.5092206     -87.985686      8000         
       910   180.7997       1.8190084      2.6946478      4.5136562      102.39627      8000         
       920   169.45433      1.9866327      2.5255559      4.5121886     -21.178295      8000         
       930   169.24291      1.9889533      2.5224049      4.5113582      44.588395      8000         
       940   167.66595      2.0069922      2.4989017      4.505894      -123.68716      8000         
       950   236.60264      0.96888371     3.5263376      4.4952213      60.675057      8000         
       960   180.61133      1.8147857      2.6918403      4.5066259     -11.365434      8000         
       970   182.09592      1.7931887      2.7139668      4.5071554      78.353201      8000         
       980   209.95192      1.3698166      3.129134       4.4989505     -58.867152      8000         
       990   200.5746       1.5083515      2.989374       4.4977254     -19.17999       8000         
      1000   219.68122      1.2204316      3.2741399      4.4945715     -1.0221933      8000         
Loop time of 0.00145448 on 1 procs for 1000 steps with 6 atoms

Performance: 59402.510 ns/day, 0.000 hours/ns, 687529.048 timesteps/s, 4.125 Matom-step/s
100.0% CPU use with 1 MPI tasks x 1 OpenMP threads

MPI task timing breakdown:
Section |  min time  |  avg time  |  max time  |%varavg| %total
---------------------------------------------------------------
Pair    | 7.0103e-05 | 7.0103e-05 | 7.0103e-05 |   0.0 |  4.82
Bond    | 0.00029079 | 0.00029079 | 0.00029079 |   0.0 | 19.99
Neigh   | 6.848e-05  | 6.848e-05  | 6.848e-05  |   0.0 |  4.71
Comm    | 0.00044309 | 0.00044309 | 0.00044309 |   0.0 | 30.46
Output  | 0.0002821  | 0.0002821  | 0.0002821  |   0.0 | 19.40
Modify  | 0.00011281 | 0.00011281 | 0.00011281 |   0.0 |  7.76
Other   |            | 0.0001871  |            |       | 12.86

Nlocal:              6 ave           6 max           6 min
Histogram: 1 0 0 0 0 0 0 0 0 0
Nghost:            147 ave         147 max         147 min
Histogram: 1 0 0 0 0 0 0 0 0 0
Neighs:              0 ave           0 max           0 min
Histogram: 1 0 0 0 0 0 0 0 0 0

Total # of neighbors = 0
Ave neighs/atom = 0
Ave special neighs/atom = 5
Neighbor list builds = 17
Dangerous builds = 0
Total wall time: 0:00:00
